Running for instance ./models/c106.txt
Generating routes...
Execution time:  25.722929  seconds
Academic license - for non-commercial use only
Warning: constraint name "Cliente esta na rota x1" has a space
Optimize a model with 26 rows, 10000 columns and 58736 nonzeros
Variable types: 0 continuous, 10000 integer (0 binary)
Coefficient statistics:
  Matrix range     [1e+00, 1e+00]
  Objective range  [2e+01, 2e+02]
  Bounds range     [1e+00, 1e+00]
  RHS range        [1e+00, 2e+01]
Found heuristic solution: objective 641.6453909
Presolve removed 1 rows and 10 columns
Presolve time: 0.06s
Presolved: 25 rows, 9990 columns, 48688 nonzeros
Variable types: 0 continuous, 9990 integer (9990 binary)

Root relaxation: objective 2.609063e+02, 125 iterations, 0.01 seconds

    Nodes    |    Current Node    |     Objective Bounds      |     Work
 Expl Unexpl |  Obj  Depth IntInf | Incumbent    BestBd   Gap | It/Node Time

*    0     0               0     260.9063320  260.90633  0.00%     -    0s

Explored 0 nodes (125 simplex iterations) in 0.09 seconds
Thread count was 8 (of 8 available processors)

Solution count 2: 260.906 641.645 

Optimal solution found (tolerance 1.00e-04)
Best objective 2.609063320014e+02, best bound 2.609063320014e+02, gap 0.0000%

Routes:
24 25 23 22 21
5 3 7 8 10 4 2 1
20 17 18 19 15 16 14 12
13 11 9 6

Distance: 260.906332001
Execution time:  26.675369  seconds
